(set-info :smt-lib-version 2.6)
(set-logic AUFBVFPDTNIRA)
(set-info :source |
Generated by: AdaCore
Generated on: 2020-03-06
Generator: SPARK
Application: Program verification for Ada
Target solver: Z3
|)
(set-info :license "https://creativecommons.org/licenses/by/4.0/")
(set-info :category "industrial")
(set-info :status unknown)
;;; generated by SMT-LIB2 driver
;;; SMT-LIB2 driver: bit-vectors, common part
;;; SMT-LIB2: integer arithmetic
(declare-sort string 0)

(declare-datatypes () ((tuple0 (Tuple0))))
(declare-sort us_private 0)

(declare-fun private__bool_eq (us_private us_private) Bool)

(declare-const us_null_ext__ us_private)

(declare-sort us_type_of_heap 0)

(declare-datatypes ()
((us_type_of_heap__ref
 (us_type_of_heap__refqtmk (us_type_of_heap__content us_type_of_heap)))))
(declare-sort us_image 0)

(declare-datatypes () ((int__ref (int__refqtmk (int__content Int)))))
(declare-datatypes () ((bool__ref (bool__refqtmk (bool__content Bool)))))
(declare-datatypes ()
((us_fixed__ref (us_fixed__refqtmk (us_fixed__content Int)))))
(declare-datatypes () ((real__ref (real__refqtmk (real__content Real)))))
(declare-datatypes ()
((us_private__ref (us_private__refqtmk (us_private__content us_private)))))
(define-fun int__ref___projection ((a int__ref)) Int (int__content a))

(define-fun us_fixed__ref___projection ((a us_fixed__ref)) Int (us_fixed__content
                                                               a))

(define-fun bool__ref___projection ((a bool__ref)) Bool (bool__content a))

(define-fun real__ref___projection ((a real__ref)) Real (real__content a))

(define-fun us_private__ref___projection ((a us_private__ref)) us_private 
  (us_private__content a))

(define-fun in_range ((x Int)) Bool (or (= x 0) (= x 1)))

(declare-fun attr__ATTRIBUTE_IMAGE (Bool) us_image)

(declare-fun attr__ATTRIBUTE_VALUE__pre_check (us_image) Bool)

(declare-fun attr__ATTRIBUTE_VALUE (us_image) Bool)

(declare-sort capacity_range 0)

(declare-fun capacity_rangeqtint (capacity_range) Int)

;; capacity_range'axiom
  (assert
  (forall ((i capacity_range))
  (and (<= 0 (capacity_rangeqtint i))
  (<= (capacity_rangeqtint i) 2147483647))))

(define-fun in_range1 ((x Int)) Bool (and (<= 0 x) (<= x 2147483647)))

(declare-fun attr__ATTRIBUTE_IMAGE1 (Int) us_image)

(declare-fun attr__ATTRIBUTE_VALUE__pre_check1 (us_image) Bool)

(declare-fun attr__ATTRIBUTE_VALUE1 (us_image) Int)

(declare-fun user_eq (capacity_range capacity_range) Bool)

(declare-const dummy capacity_range)

(declare-datatypes ()
((capacity_range__ref
 (capacity_range__refqtmk (capacity_range__content capacity_range)))))
(define-fun capacity_range__ref_capacity_range__content__projection ((a capacity_range__ref)) capacity_range 
  (capacity_range__content a))

(define-fun to_rep ((x capacity_range)) Int (capacity_rangeqtint x))

(declare-fun of_rep (Int) capacity_range)

;; inversion_axiom
  (assert
  (forall ((x capacity_range))
  (! (= (of_rep (to_rep x)) x) :pattern ((to_rep x)) )))

;; range_axiom
  (assert
  (forall ((x capacity_range)) (! (in_range1
  (to_rep x)) :pattern ((to_rep x)) )))

;; coerce_axiom
  (assert
  (forall ((x Int))
  (! (=> (in_range1 x) (= (to_rep (of_rep x)) x)) :pattern ((to_rep
                                                            (of_rep x))) )))

(declare-sort us_main_type 0)

(declare-fun us_main_eq (us_main_type us_main_type) Bool)

(declare-datatypes ()
((us_split_discrs
 (us_split_discrsqtmk (rec__bounded__vect__vector__capacity capacity_range)))))
(define-fun us_split_discrs_rec__bounded__vect__vector__capacity__projection ((a us_split_discrs)) capacity_range 
  (rec__bounded__vect__vector__capacity a))

(declare-datatypes ()
((us_split_discrs__ref
 (us_split_discrs__refqtmk (us_split_discrs__content us_split_discrs)))))
(define-fun us_split_discrs__ref___split_discrs__content__projection ((a us_split_discrs__ref)) us_split_discrs 
  (us_split_discrs__content a))

(declare-datatypes ()
((us_split_fields
 (us_split_fieldsqtmk (rec__bounded__vect__vector us_main_type)))))
(define-fun us_split_fields_rec__bounded__vect__vector__projection ((a us_split_fields)) us_main_type 
  (rec__bounded__vect__vector a))

(declare-datatypes ()
((us_split_fields__ref
 (us_split_fields__refqtmk (us_split_fields__content us_split_fields)))))
(define-fun us_split_fields__ref___split_fields__content__projection ((a us_split_fields__ref)) us_split_fields 
  (us_split_fields__content a))

(declare-datatypes ()
((us_rep
 (us_repqtmk
 (us_split_discrs1 us_split_discrs)(us_split_fields1 us_split_fields)))))
(define-fun us_rep___split_discrs__projection ((a us_rep)) us_split_discrs 
  (us_split_discrs1 a))

(define-fun us_rep___split_fields__projection ((a us_rep)) us_split_fields 
  (us_split_fields1 a))

(define-fun bool_eq ((a us_rep)
  (b us_rep)) Bool (ite (and
                        (= (to_rep
                           (rec__bounded__vect__vector__capacity
                           (us_split_discrs1 a))) (to_rep
                                                  (rec__bounded__vect__vector__capacity
                                                  (us_split_discrs1 b))))
                        (= (us_main_eq
                           (rec__bounded__vect__vector (us_split_fields1 a))
                           (rec__bounded__vect__vector (us_split_fields1 b))) true))
                   true false))

(define-fun in_range2 ((rec__bounded__vect__vector__capacity1 Int)
  (a us_split_discrs)) Bool (= rec__bounded__vect__vector__capacity1 
  (to_rep (rec__bounded__vect__vector__capacity a))))

(declare-const value__size Int)

(declare-const object__size Int)

(declare-const alignment Int)

;; value__size_axiom
  (assert (<= 0 value__size))

;; object__size_axiom
  (assert (<= 0 object__size))

;; alignment_axiom
  (assert (<= 0 alignment))

(declare-const bounded__vect__vector__capacity__first__bit Int)

(declare-const bounded__vect__vector__capacity__last__bit Int)

(declare-const bounded__vect__vector__capacity__position Int)

;; bounded__vect__vector__capacity__first__bit_axiom
  (assert (<= 0 bounded__vect__vector__capacity__first__bit))

;; bounded__vect__vector__capacity__last__bit_axiom
  (assert
  (< bounded__vect__vector__capacity__first__bit bounded__vect__vector__capacity__last__bit))

;; bounded__vect__vector__capacity__position_axiom
  (assert (<= 0 bounded__vect__vector__capacity__position))

(declare-fun user_eq1 (us_rep us_rep) Bool)

(declare-const dummy1 us_rep)

(declare-datatypes ()
((vector__ref (vector__refqtmk (vector__content us_rep)))))
(define-fun vector__ref_vector__content__projection ((a vector__ref)) us_rep 
  (vector__content a))

(define-fun capacity ((container us_rep)) Int (to_rep
                                              (rec__bounded__vect__vector__capacity
                                              (us_split_discrs1 container))))

(declare-fun capacity__function_guard (Int us_rep) Bool)

(define-fun dynamic_invariant ((temp___expr_232 Int)
  (temp___is_init_228 Bool) (temp___skip_constant_229 Bool)
  (temp___do_toplevel_230 Bool)
  (temp___do_typ_inv_231 Bool)) Bool (=>
                                     (or (= temp___is_init_228 true)
                                     (<= 0 2147483647)) (in_range1
                                     temp___expr_232)))

(declare-fun length (us_rep) Int)

(declare-fun length__function_guard (Int us_rep) Bool)

(declare-fun oeq (us_rep us_rep) Bool)

(declare-fun oeq__function_guard (Bool us_rep us_rep) Bool)

;; user_eq__def_axiom
  (assert
  (forall ((a us_rep) (b us_rep))
  (! (= (user_eq1 a b) (oeq a b)) :pattern ((user_eq1 a b)) )))

;; length__post_axiom
  (assert
  (forall ((container us_rep))
  (! (let ((result (length container)))
     (and (<= result (capacity container)) (dynamic_invariant result true
     false true true))) :pattern ((length container)) )))

(declare-sort us_main_type1 0)

(declare-fun us_main_eq1 (us_main_type1 us_main_type1) Bool)

(declare-sort us_rep1 0)

(declare-fun bool_eq1 (us_rep1 us_rep1) Bool)

(declare-const value__size1 Int)

(declare-const object__size1 Int)

(declare-const alignment1 Int)

;; value__size_axiom
  (assert (<= 0 value__size1))

;; object__size_axiom
  (assert (<= 0 object__size1))

;; alignment_axiom
  (assert (<= 0 alignment1))

(declare-fun user_eq2 (us_rep1 us_rep1) Bool)

(declare-const dummy2 us_rep1)

(declare-datatypes ()
((sequence__ref (sequence__refqtmk (sequence__content us_rep1)))))
(define-fun sequence__ref_sequence__content__projection ((a sequence__ref)) us_rep1 
  (sequence__content a))

(declare-fun model1 (us_rep) us_rep1)

(declare-fun model__function_guard (us_rep1 us_rep) Bool)

(declare-fun length1 (us_rep1) Int)

(declare-fun length__function_guard1 (Int us_rep1) Bool)

(define-fun length2 ((x Int) (y Int)) Int (ite (<= x y) (+ (- y x) 1) 0))

(define-fun last ((container us_rep1)) Int (+ 0 (length1 container)))

(declare-fun last__function_guard (Int us_rep1) Bool)

(declare-fun get (us_rep1 Int) Int)

(declare-fun get__function_guard (Int us_rep1 Int) Bool)

(define-fun oeq1 ((left us_rep1)
  (right us_rep1)) Bool (and (= (length1 left) (length1 right)) (ite 
                                                                (forall
                                                                ((n Int))
                                                                (=>
                                                                (and (<= 1 n)
                                                                (<= n 
                                                                (last left)))
                                                                (= (get left
                                                                   n) 
                                                                (get right n))))
                                                                true false)))

(declare-fun oeq__function_guard1 (Bool us_rep1 us_rep1) Bool)

;; user_eq__def_axiom
  (assert
  (forall ((a us_rep1) (b us_rep1))
  (! (= (user_eq2 a b) (oeq1 a b)) :pattern ((user_eq2 a b)) )))

(define-fun default_initial_assumption ((temp___expr_271 us_rep1)
  (temp___skip_top_level_272 Bool)) Bool (=>
                                         (not
                                         (= temp___skip_top_level_272 true))
                                         (= (length1 temp___expr_271) 0)))

;; model__post_axiom
  (assert
  (forall ((container us_rep))
  (! (= (length1 (model1 container)) (length container)) :pattern ((model1
                                                                   container)) )))

(define-fun last_index ((container us_rep)) Int (last (model1 container)))

(declare-fun last_index__function_guard (Int us_rep) Bool)

(declare-sort extended_index 0)

(declare-fun extended_indexqtint (extended_index) Int)

;; extended_index'axiom
  (assert
  (forall ((i extended_index))
  (and (<= 0 (extended_indexqtint i))
  (<= (extended_indexqtint i) 2147483647))))

(define-fun in_range3 ((x Int)) Bool (and (<= 0 x) (<= x 2147483647)))

(declare-fun attr__ATTRIBUTE_IMAGE2 (Int) us_image)

(declare-fun attr__ATTRIBUTE_VALUE__pre_check2 (us_image) Bool)

(declare-fun attr__ATTRIBUTE_VALUE2 (us_image) Int)

(declare-fun user_eq3 (extended_index extended_index) Bool)

(declare-const dummy3 extended_index)

(declare-datatypes ()
((extended_index__ref
 (extended_index__refqtmk (extended_index__content extended_index)))))
(define-fun extended_index__ref_extended_index__content__projection ((a extended_index__ref)) extended_index 
  (extended_index__content a))

(define-fun dynamic_invariant1 ((temp___expr_218 Int)
  (temp___is_init_214 Bool) (temp___skip_constant_215 Bool)
  (temp___do_toplevel_216 Bool)
  (temp___do_typ_inv_217 Bool)) Bool (=>
                                     (or (= temp___is_init_214 true)
                                     (<= 0 2147483647)) (in_range3
                                     temp___expr_218)))

(declare-const container__split_discrs us_split_discrs)

(declare-const attr__ATTRIBUTE_ADDRESS Int)

(declare-const before Int)

(declare-const attr__ATTRIBUTE_ADDRESS1 Int)

(declare-const new_item us_rep)

(declare-const attr__ATTRIBUTE_ADDRESS2 Int)

(declare-sort tcount_typeB 0)

(declare-fun tcount_typeBqtint (tcount_typeB) Int)

;; tcount_typeB'axiom
  (assert
  (forall ((i tcount_typeB))
  (and (<= (- 2147483648) (tcount_typeBqtint i))
  (<= (tcount_typeBqtint i) 2147483647))))

(define-fun in_range4 ((x Int)) Bool (and (<= (- 2147483648) x)
                                     (<= x 2147483647)))

(declare-fun attr__ATTRIBUTE_IMAGE3 (Int) us_image)

(declare-fun attr__ATTRIBUTE_VALUE__pre_check3 (us_image) Bool)

(declare-fun attr__ATTRIBUTE_VALUE3 (us_image) Int)

(declare-fun user_eq4 (tcount_typeB tcount_typeB) Bool)

(declare-const dummy4 tcount_typeB)

(declare-datatypes ()
((tcount_typeB__ref
 (tcount_typeB__refqtmk (tcount_typeB__content tcount_typeB)))))
(define-fun tcount_typeB__ref_tcount_typeB__content__projection ((a tcount_typeB__ref)) tcount_typeB 
  (tcount_typeB__content a))

(declare-sort count_type 0)

(declare-fun count_typeqtint (count_type) Int)

;; count_type'axiom
  (assert
  (forall ((i count_type))
  (and (<= 0 (count_typeqtint i)) (<= (count_typeqtint i) 2147483647))))

(define-fun in_range5 ((x Int)) Bool (and (<= 0 x) (<= x 2147483647)))

(declare-fun attr__ATTRIBUTE_IMAGE4 (Int) us_image)

(declare-fun attr__ATTRIBUTE_VALUE__pre_check4 (us_image) Bool)

(declare-fun attr__ATTRIBUTE_VALUE4 (us_image) Int)

(declare-fun user_eq5 (count_type count_type) Bool)

(declare-const dummy5 count_type)

(declare-datatypes ()
((count_type__ref (count_type__refqtmk (count_type__content count_type)))))
(define-fun count_type__ref_count_type__content__projection ((a count_type__ref)) count_type 
  (count_type__content a))

(define-fun dynamic_invariant2 ((temp___expr_225 Int)
  (temp___is_init_221 Bool) (temp___skip_constant_222 Bool)
  (temp___do_toplevel_223 Bool)
  (temp___do_typ_inv_224 Bool)) Bool (=>
                                     (or (= temp___is_init_221 true)
                                     (<= 0 2147483647)) (in_range5
                                     temp___expr_225)))

;; oeq__post_axiom
  (assert
  (forall ((left us_rep) (right us_rep))
  (! (= (= (oeq left right) true)
     (= (oeq1 (model1 left) (model1 right)) true)) :pattern ((oeq left right)) )))

(declare-sort extended_index1 0)

(declare-fun extended_indexqtint1 (extended_index1) Int)

;; extended_index'axiom
  (assert
  (forall ((i extended_index1))
  (and (<= 0 (extended_indexqtint1 i))
  (<= (extended_indexqtint1 i) 2147483647))))

(define-fun in_range6 ((x Int)) Bool (and (<= 0 x) (<= x 2147483647)))

(declare-fun attr__ATTRIBUTE_IMAGE5 (Int) us_image)

(declare-fun attr__ATTRIBUTE_VALUE__pre_check5 (us_image) Bool)

(declare-fun attr__ATTRIBUTE_VALUE5 (us_image) Int)

(declare-fun user_eq6 (extended_index1 extended_index1) Bool)

(declare-const dummy6 extended_index1)

(declare-datatypes ()
((extended_index__ref1
 (extended_index__refqtmk1 (extended_index__content1 extended_index1)))))
(define-fun extended_index__ref_extended_index__content__2__projection ((a extended_index__ref1)) extended_index1 
  (extended_index__content1 a))

(define-fun dynamic_invariant3 ((temp___expr_263 Int)
  (temp___is_init_259 Bool) (temp___skip_constant_260 Bool)
  (temp___do_toplevel_261 Bool)
  (temp___do_typ_inv_262 Bool)) Bool (=>
                                     (or (= temp___is_init_259 true)
                                     (<= 0 2147483647)) (in_range6
                                     temp___expr_263)))

;; length__post_axiom
  (assert
  (forall ((container us_rep1))
  (! (let ((result (length1 container)))
     (and (<= (+ 0 result) 2147483647) (dynamic_invariant2 result true false
     true true))) :pattern ((length1 container)) )))

(declare-sort element_type 0)

(declare-fun element_typeqtint (element_type) Int)

;; element_type'axiom
  (assert
  (forall ((i element_type))
  (and (<= (- 2147483648) (element_typeqtint i))
  (<= (element_typeqtint i) 2147483647))))

(define-fun in_range7 ((x Int)) Bool (and (<= (- 2147483648) x)
                                     (<= x 2147483647)))

(declare-fun attr__ATTRIBUTE_IMAGE6 (Int) us_image)

(declare-fun attr__ATTRIBUTE_VALUE__pre_check6 (us_image) Bool)

(declare-fun attr__ATTRIBUTE_VALUE6 (us_image) Int)

(declare-fun user_eq7 (element_type element_type) Bool)

(declare-const dummy7 element_type)

(declare-datatypes ()
((element_type__ref
 (element_type__refqtmk (element_type__content element_type)))))
(define-fun element_type__ref_element_type__content__2__projection ((a element_type__ref)) element_type 
  (element_type__content a))

(define-fun dynamic_invariant4 ((temp___expr_256 Int)
  (temp___is_init_252 Bool) (temp___skip_constant_253 Bool)
  (temp___do_toplevel_254 Bool)
  (temp___do_typ_inv_255 Bool)) Bool (=>
                                     (or (= temp___is_init_252 true)
                                     (<= (- 2147483648) 2147483647))
                                     (in_range7 temp___expr_256)))

;; get__post_axiom
  (assert
  (forall ((container us_rep1))
  (forall ((position Int))
  (! (=>
     (and (dynamic_invariant3 position true true true true)
     (and (<= 1 position) (<= position (last container))))
     (dynamic_invariant4 (get container position) true false true true)) :pattern (
  (get container position)) ))))

(declare-const container__split_fields us_main_type)

;; Assume
  (assert true)

;; Assume
  (assert (dynamic_invariant1 before true false true true))

;; Assume
  (assert true)

;; H
  (assert
  (or (= before 0)
  (let ((o (us_repqtmk container__split_discrs
           (us_split_fieldsqtmk container__split_fields))))
  (let ((o1 (last_index o)))
  (and (dynamic_invariant1 o1 true false true true) (= o1 (last (model1 o))))))))

(define-fun o () us_rep (us_repqtmk container__split_discrs
                        (us_split_fieldsqtmk container__split_fields)))

(define-fun o1 () Int (last_index o))

;; H
  (assert (dynamic_invariant1 o1 true false true true))

;; H
  (assert (= o1 (last (model1 o))))

(define-fun o2 () us_rep new_item)

(define-fun o3 () Int (length o2))

;; H
  (assert (dynamic_invariant o3 true false true true))

;; H
  (assert (<= o3 (capacity o2)))

(define-fun o4 () Int (capacity
                      (us_repqtmk container__split_discrs
                      (us_split_fieldsqtmk container__split_fields))))

;; H
  (assert (dynamic_invariant o4 true false true true))

;; H
  (assert
  (= o4 (to_rep
        (rec__bounded__vect__vector__capacity container__split_discrs))))

(define-fun o5 () Int (- o4 o3))

(assert
;; defqtvc
 ;; File "a-cofove.ads", line 288, characters 0-0
  (not (in_range4 o5)))
(check-sat)

(exit)
